15 50
1 2 1
1 3 1
1 4 1
1 5 1
1 6 1
1 7 1
2 3 1
2 4 1
2 5 1
2 6 1
2 7 1
3 4 1
3 5 1
3 6 1
3 7 1
4 5 1
4 6 1
4 7 1
5 6 1
5 7 1
6 7 1
8 9 1
8 10 1
8 11 1
8 12 1
8 13 1
8 14 1
9 10 1
9 11 1
9 12 1
9 13 1
9 14 1
10 11 1
10 12 1
10 13 1
10 14 1
11 12 1
11 13 1
11 14 1
12 13 1
12 14 1
13 14 1
7 15 1
15 8 1
14 1 1
2 9 5
3 10 5
5 12 5
6 11 5
4 13 5
